letting maxWeight=94
letting values=[6, 2, 1, 43, 39, 17, 39, 15, 23, 18, 18, 37, 15, 35, 27, 42, 40, 36, 14, 35, 41, 44, 12, 11, 2, 30, 32, 4, 33, 11, 11, 32, 44, 25, 44, 20, 2, 19, 16, 21, 28, 23, 2, 10, 6, 1, 22, 14, 34, 3, 25, 6, 2, 20, 27, 9, 29, 18, 26, 16, 9, 23, 15, 35, 11, 13, 19, 25, 2, 23, 6, 37, 30, 37, 38, 42, 20, 23]
letting weights=[22, 14, 4, 27, 27, 19, 25, 2, 4, 19, 6, 12, 4, 5, 32, 10, 29, 32, 1, 31, 2, 6, 7, 32, 24, 23, 29, 13, 16, 6, 23, 31, 10, 29, 1, 15, 19, 4, 29, 11, 14, 11, 34, 25, 18, 33, 6, 18, 29, 21, 21, 36, 29, 14, 25, 30, 4, 7, 33, 33, 12, 29, 6, 7, 24, 20, 8, 35, 36, 6, 8, 10, 14, 18, 28, 1, 7, 16]
